============================[ Problem Statistics ]=============================|                                                                             ||  Number of variables:          4242                                         ||  Number of clauses:           10435                                         ||  Parse time:                   0.81 s                                       ||                                                                             |============================[ Search Statistics ]==============================| Conflicts |          ORIGINAL         |          LEARNT          | Progress ||           |    Vars  Clauses Literals |    Limit  Clauses Lit/Cl |          |===============================================================================|       100 |    1591     6640  1311641 |     2434      100     53 | 62.501 % ||       250 |    1591     6640  1311641 |     2678      250     75 | 62.495 % |===============================================================================restarts              : 4conflicts             : 443            (359 /sec)decisions             : 803            (0.00 % random) (650 /sec)propagations          : 13731          (11118 /sec)conflict literals     : 37434          (94.47 % deleted)CPU time              : 1.235 sSATISFIABLE